n = 5;
budget = 1000000;
groceries = [|2880,104,256,160,89,1828|1835,30,170,115,191,3328|2920,35,20,300,149,3486|2390,75,365,70,116,1721|3304,98,413,140,113,3876|];
requirements = [|29300,33924|760,1012|4000,4400|1140,1364|];